<instance format="XCSP3" type="COP">
  <variables>
    <array id="m" note="-------------------------------------------------------VAR - m[i] is name of machine for tests[i]" size="[20]"> 0..9 </array>
    <array id="p" note="plan of testing by machine p[i][debut,fin] for tests[i]" size="[20][2]"> 0..7900 </array>
  </variables>
  <constraints>
    <block note="some tests can be tested by just some machine">
      <extension>
        <list> m[12] </list>
        <supports> 3 6 </supports>
      </extension>
      <extension>
        <list> m[14] </list>
        <supports> 2 7 </supports>
      </extension>
      <extension>
        <list> m[15] </list>
        <supports> 3 </supports>
      </extension>
    </block>
    <group note="deduire time debut and fin for each test">
      <intension> eq(%0,add(%1,%2)) </intension>
      <args> p[0][1] p[0][0] 424 </args>
      <args> p[1][1] p[1][0] 15 </args>
      <args> p[2][1] p[2][0] 266 </args>
      <args> p[3][1] p[3][0] 778 </args>
      <args> p[4][1] p[4][0] 435 </args>
      <args> p[5][1] p[5][0] 427 </args>
      <args> p[6][1] p[6][0] 173 </args>
      <args> p[7][1] p[7][0] 422 </args>
      <args> p[8][1] p[8][0] 255 </args>
      <args> p[9][1] p[9][0] 672 </args>
      <args> p[10][1] p[10][0] 328 </args>
      <args> p[11][1] p[11][0] 263 </args>
      <args> p[12][1] p[12][0] 655 </args>
      <args> p[13][1] p[13][0] 742 </args>
      <args> p[14][1] p[14][0] 364 </args>
      <args> p[15][1] p[15][0] 272 </args>
      <args> p[16][1] p[16][0] 472 </args>
      <args> p[17][1] p[17][0] 555 </args>
      <args> p[18][1] p[18][0] 19 </args>
      <args> p[19][1] p[19][0] 364 </args>
    </group>
    <group note="deduire time debut and fin of test with each machine">
      <intension> or(ge(%0,%1),le(%2,%3),ne(%4,%5)) </intension>
      <args> p[0][0] p[1][1] p[0][1] p[1][0] m[0] m[1] </args>
      <args> p[0][0] p[2][1] p[0][1] p[2][0] m[0] m[2] </args>
      <args> p[0][0] p[3][1] p[0][1] p[3][0] m[0] m[3] </args>
      <args> p[0][0] p[4][1] p[0][1] p[4][0] m[0] m[4] </args>
      <args> p[0][0] p[5][1] p[0][1] p[5][0] m[0] m[5] </args>
      <args> p[0][0] p[6][1] p[0][1] p[6][0] m[0] m[6] </args>
      <args> p[0][0] p[7][1] p[0][1] p[7][0] m[0] m[7] </args>
      <args> p[0][0] p[8][1] p[0][1] p[8][0] m[0] m[8] </args>
      <args> p[0][0] p[9][1] p[0][1] p[9][0] m[0] m[9] </args>
      <args> p[0][0] p[10][1] p[0][1] p[10][0] m[0] m[10] </args>
      <args> p[0][0] p[11][1] p[0][1] p[11][0] m[0] m[11] </args>
      <args> p[0][0] p[12][1] p[0][1] p[12][0] m[0] m[12] </args>
      <args> p[0][0] p[13][1] p[0][1] p[13][0] m[0] m[13] </args>
      <args> p[0][0] p[14][1] p[0][1] p[14][0] m[0] m[14] </args>
      <args> p[0][0] p[15][1] p[0][1] p[15][0] m[0] m[15] </args>
      <args> p[0][0] p[16][1] p[0][1] p[16][0] m[0] m[16] </args>
      <args> p[0][0] p[17][1] p[0][1] p[17][0] m[0] m[17] </args>
      <args> p[0][0] p[18][1] p[0][1] p[18][0] m[0] m[18] </args>
      <args> p[0][0] p[19][1] p[0][1] p[19][0] m[0] m[19] </args>
      <args> p[1][0] p[2][1] p[1][1] p[2][0] m[1] m[2] </args>
      <args> p[1][0] p[3][1] p[1][1] p[3][0] m[1] m[3] </args>
      <args> p[1][0] p[4][1] p[1][1] p[4][0] m[1] m[4] </args>
      <args> p[1][0] p[5][1] p[1][1] p[5][0] m[1] m[5] </args>
      <args> p[1][0] p[6][1] p[1][1] p[6][0] m[1] m[6] </args>
      <args> p[1][0] p[7][1] p[1][1] p[7][0] m[1] m[7] </args>
      <args> p[1][0] p[8][1] p[1][1] p[8][0] m[1] m[8] </args>
      <args> p[1][0] p[9][1] p[1][1] p[9][0] m[1] m[9] </args>
      <args> p[1][0] p[10][1] p[1][1] p[10][0] m[1] m[10] </args>
      <args> p[1][0] p[11][1] p[1][1] p[11][0] m[1] m[11] </args>
      <args> p[1][0] p[12][1] p[1][1] p[12][0] m[1] m[12] </args>
      <args> p[1][0] p[13][1] p[1][1] p[13][0] m[1] m[13] </args>
      <args> p[1][0] p[14][1] p[1][1] p[14][0] m[1] m[14] </args>
      <args> p[1][0] p[15][1] p[1][1] p[15][0] m[1] m[15] </args>
      <args> p[1][0] p[16][1] p[1][1] p[16][0] m[1] m[16] </args>
      <args> p[1][0] p[17][1] p[1][1] p[17][0] m[1] m[17] </args>
      <args> p[1][0] p[18][1] p[1][1] p[18][0] m[1] m[18] </args>
      <args> p[1][0] p[19][1] p[1][1] p[19][0] m[1] m[19] </args>
      <args> p[2][0] p[3][1] p[2][1] p[3][0] m[2] m[3] </args>
      <args> p[2][0] p[4][1] p[2][1] p[4][0] m[2] m[4] </args>
      <args> p[2][0] p[5][1] p[2][1] p[5][0] m[2] m[5] </args>
      <args> p[2][0] p[6][1] p[2][1] p[6][0] m[2] m[6] </args>
      <args> p[2][0] p[7][1] p[2][1] p[7][0] m[2] m[7] </args>
      <args> p[2][0] p[8][1] p[2][1] p[8][0] m[2] m[8] </args>
      <args> p[2][0] p[9][1] p[2][1] p[9][0] m[2] m[9] </args>
      <args> p[2][0] p[10][1] p[2][1] p[10][0] m[2] m[10] </args>
      <args> p[2][0] p[11][1] p[2][1] p[11][0] m[2] m[11] </args>
      <args> p[2][0] p[12][1] p[2][1] p[12][0] m[2] m[12] </args>
      <args> p[2][0] p[13][1] p[2][1] p[13][0] m[2] m[13] </args>
      <args> p[2][0] p[14][1] p[2][1] p[14][0] m[2] m[14] </args>
      <args> p[2][0] p[15][1] p[2][1] p[15][0] m[2] m[15] </args>
      <args> p[2][0] p[16][1] p[2][1] p[16][0] m[2] m[16] </args>
      <args> p[2][0] p[17][1] p[2][1] p[17][0] m[2] m[17] </args>
      <args> p[2][0] p[18][1] p[2][1] p[18][0] m[2] m[18] </args>
      <args> p[2][0] p[19][1] p[2][1] p[19][0] m[2] m[19] </args>
      <args> p[3][0] p[4][1] p[3][1] p[4][0] m[3] m[4] </args>
      <args> p[3][0] p[5][1] p[3][1] p[5][0] m[3] m[5] </args>
      <args> p[3][0] p[6][1] p[3][1] p[6][0] m[3] m[6] </args>
      <args> p[3][0] p[7][1] p[3][1] p[7][0] m[3] m[7] </args>
      <args> p[3][0] p[8][1] p[3][1] p[8][0] m[3] m[8] </args>
      <args> p[3][0] p[9][1] p[3][1] p[9][0] m[3] m[9] </args>
      <args> p[3][0] p[10][1] p[3][1] p[10][0] m[3] m[10] </args>
      <args> p[3][0] p[11][1] p[3][1] p[11][0] m[3] m[11] </args>
      <args> p[3][0] p[12][1] p[3][1] p[12][0] m[3] m[12] </args>
      <args> p[3][0] p[13][1] p[3][1] p[13][0] m[3] m[13] </args>
      <args> p[3][0] p[14][1] p[3][1] p[14][0] m[3] m[14] </args>
      <args> p[3][0] p[15][1] p[3][1] p[15][0] m[3] m[15] </args>
      <args> p[3][0] p[16][1] p[3][1] p[16][0] m[3] m[16] </args>
      <args> p[3][0] p[17][1] p[3][1] p[17][0] m[3] m[17] </args>
      <args> p[3][0] p[18][1] p[3][1] p[18][0] m[3] m[18] </args>
      <args> p[3][0] p[19][1] p[3][1] p[19][0] m[3] m[19] </args>
      <args> p[4][0] p[5][1] p[4][1] p[5][0] m[4] m[5] </args>
      <args> p[4][0] p[6][1] p[4][1] p[6][0] m[4] m[6] </args>
      <args> p[4][0] p[7][1] p[4][1] p[7][0] m[4] m[7] </args>
      <args> p[4][0] p[8][1] p[4][1] p[8][0] m[4] m[8] </args>
      <args> p[4][0] p[9][1] p[4][1] p[9][0] m[4] m[9] </args>
      <args> p[4][0] p[10][1] p[4][1] p[10][0] m[4] m[10] </args>
      <args> p[4][0] p[11][1] p[4][1] p[11][0] m[4] m[11] </args>
      <args> p[4][0] p[12][1] p[4][1] p[12][0] m[4] m[12] </args>
      <args> p[4][0] p[13][1] p[4][1] p[13][0] m[4] m[13] </args>
      <args> p[4][0] p[14][1] p[4][1] p[14][0] m[4] m[14] </args>
      <args> p[4][0] p[15][1] p[4][1] p[15][0] m[4] m[15] </args>
      <args> p[4][0] p[16][1] p[4][1] p[16][0] m[4] m[16] </args>
      <args> p[4][0] p[17][1] p[4][1] p[17][0] m[4] m[17] </args>
      <args> p[4][0] p[18][1] p[4][1] p[18][0] m[4] m[18] </args>
      <args> p[4][0] p[19][1] p[4][1] p[19][0] m[4] m[19] </args>
      <args> p[5][0] p[6][1] p[5][1] p[6][0] m[5] m[6] </args>
      <args> p[5][0] p[7][1] p[5][1] p[7][0] m[5] m[7] </args>
      <args> p[5][0] p[8][1] p[5][1] p[8][0] m[5] m[8] </args>
      <args> p[5][0] p[9][1] p[5][1] p[9][0] m[5] m[9] </args>
      <args> p[5][0] p[10][1] p[5][1] p[10][0] m[5] m[10] </args>
      <args> p[5][0] p[11][1] p[5][1] p[11][0] m[5] m[11] </args>
      <args> p[5][0] p[12][1] p[5][1] p[12][0] m[5] m[12] </args>
      <args> p[5][0] p[13][1] p[5][1] p[13][0] m[5] m[13] </args>
      <args> p[5][0] p[14][1] p[5][1] p[14][0] m[5] m[14] </args>
      <args> p[5][0] p[15][1] p[5][1] p[15][0] m[5] m[15] </args>
      <args> p[5][0] p[16][1] p[5][1] p[16][0] m[5] m[16] </args>
      <args> p[5][0] p[17][1] p[5][1] p[17][0] m[5] m[17] </args>
      <args> p[5][0] p[18][1] p[5][1] p[18][0] m[5] m[18] </args>
      <args> p[5][0] p[19][1] p[5][1] p[19][0] m[5] m[19] </args>
      <args> p[6][0] p[7][1] p[6][1] p[7][0] m[6] m[7] </args>
      <args> p[6][0] p[8][1] p[6][1] p[8][0] m[6] m[8] </args>
      <args> p[6][0] p[9][1] p[6][1] p[9][0] m[6] m[9] </args>
      <args> p[6][0] p[10][1] p[6][1] p[10][0] m[6] m[10] </args>
      <args> p[6][0] p[11][1] p[6][1] p[11][0] m[6] m[11] </args>
      <args> p[6][0] p[12][1] p[6][1] p[12][0] m[6] m[12] </args>
      <args> p[6][0] p[13][1] p[6][1] p[13][0] m[6] m[13] </args>
      <args> p[6][0] p[14][1] p[6][1] p[14][0] m[6] m[14] </args>
      <args> p[6][0] p[15][1] p[6][1] p[15][0] m[6] m[15] </args>
      <args> p[6][0] p[16][1] p[6][1] p[16][0] m[6] m[16] </args>
      <args> p[6][0] p[17][1] p[6][1] p[17][0] m[6] m[17] </args>
      <args> p[6][0] p[18][1] p[6][1] p[18][0] m[6] m[18] </args>
      <args> p[6][0] p[19][1] p[6][1] p[19][0] m[6] m[19] </args>
      <args> p[7][0] p[8][1] p[7][1] p[8][0] m[7] m[8] </args>
      <args> p[7][0] p[9][1] p[7][1] p[9][0] m[7] m[9] </args>
      <args> p[7][0] p[10][1] p[7][1] p[10][0] m[7] m[10] </args>
      <args> p[7][0] p[11][1] p[7][1] p[11][0] m[7] m[11] </args>
      <args> p[7][0] p[12][1] p[7][1] p[12][0] m[7] m[12] </args>
      <args> p[7][0] p[13][1] p[7][1] p[13][0] m[7] m[13] </args>
      <args> p[7][0] p[14][1] p[7][1] p[14][0] m[7] m[14] </args>
      <args> p[7][0] p[15][1] p[7][1] p[15][0] m[7] m[15] </args>
      <args> p[7][0] p[16][1] p[7][1] p[16][0] m[7] m[16] </args>
      <args> p[7][0] p[17][1] p[7][1] p[17][0] m[7] m[17] </args>
      <args> p[7][0] p[18][1] p[7][1] p[18][0] m[7] m[18] </args>
      <args> p[7][0] p[19][1] p[7][1] p[19][0] m[7] m[19] </args>
      <args> p[8][0] p[9][1] p[8][1] p[9][0] m[8] m[9] </args>
      <args> p[8][0] p[10][1] p[8][1] p[10][0] m[8] m[10] </args>
      <args> p[8][0] p[11][1] p[8][1] p[11][0] m[8] m[11] </args>
      <args> p[8][0] p[12][1] p[8][1] p[12][0] m[8] m[12] </args>
      <args> p[8][0] p[13][1] p[8][1] p[13][0] m[8] m[13] </args>
      <args> p[8][0] p[14][1] p[8][1] p[14][0] m[8] m[14] </args>
      <args> p[8][0] p[15][1] p[8][1] p[15][0] m[8] m[15] </args>
      <args> p[8][0] p[16][1] p[8][1] p[16][0] m[8] m[16] </args>
      <args> p[8][0] p[17][1] p[8][1] p[17][0] m[8] m[17] </args>
      <args> p[8][0] p[18][1] p[8][1] p[18][0] m[8] m[18] </args>
      <args> p[8][0] p[19][1] p[8][1] p[19][0] m[8] m[19] </args>
      <args> p[9][0] p[10][1] p[9][1] p[10][0] m[9] m[10] </args>
      <args> p[9][0] p[11][1] p[9][1] p[11][0] m[9] m[11] </args>
      <args> p[9][0] p[12][1] p[9][1] p[12][0] m[9] m[12] </args>
      <args> p[9][0] p[13][1] p[9][1] p[13][0] m[9] m[13] </args>
      <args> p[9][0] p[14][1] p[9][1] p[14][0] m[9] m[14] </args>
      <args> p[9][0] p[15][1] p[9][1] p[15][0] m[9] m[15] </args>
      <args> p[9][0] p[16][1] p[9][1] p[16][0] m[9] m[16] </args>
      <args> p[9][0] p[17][1] p[9][1] p[17][0] m[9] m[17] </args>
      <args> p[9][0] p[18][1] p[9][1] p[18][0] m[9] m[18] </args>
      <args> p[9][0] p[19][1] p[9][1] p[19][0] m[9] m[19] </args>
      <args> p[10][0] p[11][1] p[10][1] p[11][0] m[10] m[11] </args>
      <args> p[10][0] p[12][1] p[10][1] p[12][0] m[10] m[12] </args>
      <args> p[10][0] p[13][1] p[10][1] p[13][0] m[10] m[13] </args>
      <args> p[10][0] p[14][1] p[10][1] p[14][0] m[10] m[14] </args>
      <args> p[10][0] p[15][1] p[10][1] p[15][0] m[10] m[15] </args>
      <args> p[10][0] p[16][1] p[10][1] p[16][0] m[10] m[16] </args>
      <args> p[10][0] p[17][1] p[10][1] p[17][0] m[10] m[17] </args>
      <args> p[10][0] p[18][1] p[10][1] p[18][0] m[10] m[18] </args>
      <args> p[10][0] p[19][1] p[10][1] p[19][0] m[10] m[19] </args>
      <args> p[11][0] p[12][1] p[11][1] p[12][0] m[11] m[12] </args>
      <args> p[11][0] p[13][1] p[11][1] p[13][0] m[11] m[13] </args>
      <args> p[11][0] p[14][1] p[11][1] p[14][0] m[11] m[14] </args>
      <args> p[11][0] p[15][1] p[11][1] p[15][0] m[11] m[15] </args>
      <args> p[11][0] p[16][1] p[11][1] p[16][0] m[11] m[16] </args>
      <args> p[11][0] p[17][1] p[11][1] p[17][0] m[11] m[17] </args>
      <args> p[11][0] p[18][1] p[11][1] p[18][0] m[11] m[18] </args>
      <args> p[11][0] p[19][1] p[11][1] p[19][0] m[11] m[19] </args>
      <args> p[12][0] p[13][1] p[12][1] p[13][0] m[12] m[13] </args>
      <args> p[12][0] p[14][1] p[12][1] p[14][0] m[12] m[14] </args>
      <args> p[12][0] p[15][1] p[12][1] p[15][0] m[12] m[15] </args>
      <args> p[12][0] p[16][1] p[12][1] p[16][0] m[12] m[16] </args>
      <args> p[12][0] p[17][1] p[12][1] p[17][0] m[12] m[17] </args>
      <args> p[12][0] p[18][1] p[12][1] p[18][0] m[12] m[18] </args>
      <args> p[12][0] p[19][1] p[12][1] p[19][0] m[12] m[19] </args>
      <args> p[13][0] p[14][1] p[13][1] p[14][0] m[13] m[14] </args>
      <args> p[13][0] p[15][1] p[13][1] p[15][0] m[13] m[15] </args>
      <args> p[13][0] p[16][1] p[13][1] p[16][0] m[13] m[16] </args>
      <args> p[13][0] p[17][1] p[13][1] p[17][0] m[13] m[17] </args>
      <args> p[13][0] p[18][1] p[13][1] p[18][0] m[13] m[18] </args>
      <args> p[13][0] p[19][1] p[13][1] p[19][0] m[13] m[19] </args>
      <args> p[14][0] p[15][1] p[14][1] p[15][0] m[14] m[15] </args>
      <args> p[14][0] p[16][1] p[14][1] p[16][0] m[14] m[16] </args>
      <args> p[14][0] p[17][1] p[14][1] p[17][0] m[14] m[17] </args>
      <args> p[14][0] p[18][1] p[14][1] p[18][0] m[14] m[18] </args>
      <args> p[14][0] p[19][1] p[14][1] p[19][0] m[14] m[19] </args>
      <args> p[15][0] p[16][1] p[15][1] p[16][0] m[15] m[16] </args>
      <args> p[15][0] p[17][1] p[15][1] p[17][0] m[15] m[17] </args>
      <args> p[15][0] p[18][1] p[15][1] p[18][0] m[15] m[18] </args>
      <args> p[15][0] p[19][1] p[15][1] p[19][0] m[15] m[19] </args>
      <args> p[16][0] p[17][1] p[16][1] p[17][0] m[16] m[17] </args>
      <args> p[16][0] p[18][1] p[16][1] p[18][0] m[16] m[18] </args>
      <args> p[16][0] p[19][1] p[16][1] p[19][0] m[16] m[19] </args>
      <args> p[17][0] p[18][1] p[17][1] p[18][0] m[17] m[18] </args>
      <args> p[17][0] p[19][1] p[17][1] p[19][0] m[17] m[19] </args>
      <args> p[18][0] p[19][1] p[18][1] p[19][0] m[18] m[19] </args>
    </group>
    <group note="constraint of resource">
      <intension> or(ge(%0,%1),le(%2,%3)) </intension>
      <args> p[5][0] p[17][1] p[5][1] p[17][0] </args>
      <args> p[5][0] p[7][1] p[5][1] p[7][0] </args>
      <args> p[5][0] p[17][1] p[5][1] p[17][0] </args>
      <args> p[7][0] p[17][1] p[7][1] p[17][0] </args>
      <args> p[5][0] p[7][1] p[5][1] p[7][0] </args>
      <args> p[5][0] p[16][1] p[5][1] p[16][0] </args>
      <args> p[5][0] p[17][1] p[5][1] p[17][0] </args>
      <args> p[7][0] p[16][1] p[7][1] p[16][0] </args>
      <args> p[7][0] p[17][1] p[7][1] p[17][0] </args>
      <args> p[16][0] p[17][1] p[16][1] p[17][0] </args>
    </group>
  </constraints>
  <objectives>
    <minimize type="maximum"> p[][1] </minimize>
  </objectives>
</instance>
